NAME: random_points
TYPE: TSP
DIMENSION: 12
EDGE_WEIGHT_TYPE: EUC_2D
NODE_COORD_SECTION
1 644 753
2 320 869
3 7 802
4 164 781
5 670 717
6 762 815
7 806 947
8 836 749
9 757 108
10 620 465
11 28 944
12 45 990
EOF
